28 28
7 9
5 3
3 2
5 3
9 1
1 8
8 10
8 1
7 10
1 8
3 7
9 5
4 8
3 4
3 3
6 6
10 6
5 10
10 8
5 1
9 2
9 2
10 1
5 9
1 6
5 6
3 2
2 5
17 16 81
10 12 52
11 11 74
15 18 54
11 10 88
19 20 54
11 10 52
17 14 75
11 17 98
20 17 81
14 15 82
15 10 87
18 10 58
16 13 97
12 18 87
11 19 95
15 11 72
18 12 50
14 12 84
13 17 82
13 11 100
20 12 68
16 12 86
10 11 68
15 16 96
18 10 77
16 12 89
17 19 95
